c This file is generated by _findSolu
c Generated on Mon Feb 15 22:46:26 2016
p cnf 716 1938
1 66 0
-1 -66 0
2 67 0
-2 -67 0
4 68 0
-4 -68 0
6 69 0
-6 -69 0
8 70 0
-8 -70 0
10 71 0
-10 -71 0
12 72 0
-12 -72 0
14 73 0
-14 -73 0
16 74 0
-16 -74 0
18 75 0
-18 -75 0
20 76 0
-20 -76 0
22 77 0
-22 -77 0
24 78 0
-24 -78 0
26 79 0
-26 -79 0
28 80 0
-28 -80 0
30 81 0
-30 -81 0
32 82 0
-32 -82 0
34 83 0
-34 -83 0
-66 -2 -84 0
66 84 0
2 84 0
3 67 85 0
-3 -85 0
-67 -85 0
5 67 86 0
-5 -86 0
-67 -86 0
-68 -6 -87 0
68 87 0
6 87 0
-70 -10 -88 0
70 88 0
10 88 0
-72 -14 -89 0
72 89 0
14 89 0
-74 -18 -90 0
74 90 0
18 90 0
-76 -22 -91 0
76 91 0
22 91 0
-78 -26 -92 0
78 92 0
26 92 0
-80 -30 -93 0
80 93 0
30 93 0
-82 -34 -94 0
82 94 0
34 94 0
7 69 95 0
-7 -95 0
-69 -95 0
9 69 96 0
-9 -96 0
-69 -96 0
11 71 97 0
-11 -97 0
-71 -97 0
13 71 98 0
-13 -98 0
-71 -98 0
15 73 99 0
-15 -99 0
-73 -99 0
17 73 100 0
-17 -100 0
-73 -100 0
19 75 101 0
-19 -101 0
-75 -101 0
21 75 102 0
-21 -102 0
-75 -102 0
23 77 103 0
-23 -103 0
-77 -103 0
25 77 104 0
-25 -104 0
-77 -104 0
27 79 105 0
-27 -105 0
-79 -105 0
29 79 106 0
-29 -106 0
-79 -106 0
31 81 107 0
-31 -107 0
-81 -107 0
33 81 108 0
-33 -108 0
-81 -108 0
35 83 109 0
-35 -109 0
-83 -109 0
36 83 110 0
-36 -110 0
-83 -110 0
-84 -87 -88 -89 -90 -91 -92 -93 -94 111 0
84 -111 0
87 -111 0
88 -111 0
89 -111 0
90 -111 0
91 -111 0
92 -111 0
93 -111 0
94 -111 0
111 112 0
-111 -112 0
111 113 0
-111 -113 0
111 59 0
-111 -59 0
-112 -84 -114 0
112 84 -114 0
112 -84 114 0
-112 84 114 0
-112 -87 -115 0
112 87 -115 0
112 -87 115 0
-112 87 115 0
-112 -88 -116 0
112 88 -116 0
112 -88 116 0
-112 88 116 0
-112 -89 -117 0
112 89 -117 0
112 -89 117 0
-112 89 117 0
-112 -90 -118 0
112 90 -118 0
112 -90 118 0
-112 90 118 0
-112 -91 -119 0
112 91 -119 0
112 -91 119 0
-112 91 119 0
-1 -113 -120 0
1 120 0
113 120 0
-112 -92 -121 0
112 92 -121 0
112 -92 121 0
-112 92 121 0
-113 -4 -122 0
113 122 0
4 122 0
-112 -93 -123 0
112 93 -123 0
112 -93 123 0
-112 93 123 0
-113 -8 -124 0
113 124 0
8 124 0
-112 -94 -125 0
112 94 -125 0
112 -94 125 0
-112 94 125 0
-113 -12 -126 0
113 126 0
12 126 0
-113 -16 -127 0
113 127 0
16 127 0
-113 -20 -128 0
113 128 0
20 128 0
-113 -24 -129 0
113 129 0
24 129 0
-113 -28 -130 0
113 130 0
28 130 0
-113 -32 -131 0
113 131 0
32 131 0
-114 -85 -132 0
114 132 0
85 132 0
-114 -86 -133 0
114 133 0
86 133 0
-115 -95 -134 0
115 134 0
95 134 0
-116 -97 -135 0
116 135 0
97 135 0
-117 -99 -136 0
117 136 0
99 136 0
-118 -101 -137 0
118 137 0
101 137 0
-119 -103 -138 0
119 138 0
103 138 0
-121 -105 -139 0
121 139 0
105 139 0
-123 -107 -140 0
123 140 0
107 140 0
-125 -109 -141 0
125 141 0
109 141 0
-115 -96 -142 0
115 142 0
96 142 0
-116 -98 -143 0
116 143 0
98 143 0
-117 -100 -144 0
117 144 0
100 144 0
-118 -102 -145 0
118 145 0
102 145 0
-119 -104 -146 0
119 146 0
104 146 0
-121 -106 -147 0
121 147 0
106 147 0
-123 -108 -148 0
123 148 0
108 148 0
-125 -110 -149 0
125 149 0
110 149 0
-132 -134 -135 -136 -137 -138 -139 -140 -141 150 0
132 -150 0
134 -150 0
135 -150 0
136 -150 0
137 -150 0
138 -150 0
139 -150 0
140 -150 0
141 -150 0
133 151 0
-133 -151 0
142 152 0
-142 -152 0
143 153 0
-143 -153 0
144 154 0
-144 -154 0
145 155 0
-145 -155 0
146 156 0
-146 -156 0
147 157 0
-147 -157 0
148 158 0
-148 -158 0
149 159 0
-149 -159 0
150 160 0
-150 -160 0
150 161 0
-150 -161 0
150 60 0
-150 -60 0
-160 -132 -162 0
160 132 -162 0
160 -132 162 0
-160 132 162 0
-160 -134 -163 0
160 134 -163 0
160 -134 163 0
-160 134 163 0
-160 -135 -164 0
160 135 -164 0
160 -135 164 0
-160 135 164 0
-160 -136 -165 0
160 136 -165 0
160 -136 165 0
-160 136 165 0
-3 -161 -166 0
3 166 0
161 166 0
-160 -137 -167 0
160 137 -167 0
160 -137 167 0
-160 137 167 0
-161 -7 -168 0
161 168 0
7 168 0
-160 -138 -169 0
160 138 -169 0
160 -138 169 0
-160 138 169 0
-161 -11 -170 0
161 170 0
11 170 0
-160 -139 -171 0
160 139 -171 0
160 -139 171 0
-160 139 171 0
-161 -15 -172 0
161 172 0
15 172 0
-160 -140 -173 0
160 140 -173 0
160 -140 173 0
-160 140 173 0
-161 -19 -174 0
161 174 0
19 174 0
-160 -141 -175 0
160 141 -175 0
160 -141 175 0
-160 141 175 0
-161 -23 -176 0
161 176 0
23 176 0
-161 -27 -177 0
161 177 0
27 177 0
-161 -31 -178 0
161 178 0
31 178 0
-161 -35 -179 0
161 179 0
35 179 0
-162 -151 -180 0
162 180 0
151 180 0
-163 -152 -181 0
163 181 0
152 181 0
-164 -153 -182 0
164 182 0
153 182 0
-165 -154 -183 0
165 183 0
154 183 0
-167 -155 -184 0
167 184 0
155 184 0
-169 -156 -185 0
169 185 0
156 185 0
-171 -157 -186 0
171 186 0
157 186 0
-173 -158 -187 0
173 187 0
158 187 0
-175 -159 -188 0
175 188 0
159 188 0
-180 -181 -182 -183 -184 -185 -186 -187 -188 189 0
180 -189 0
181 -189 0
182 -189 0
183 -189 0
184 -189 0
185 -189 0
186 -189 0
187 -189 0
188 -189 0
189 190 0
-189 -190 0
189 61 0
-189 -61 0
-5 -190 -191 0
5 191 0
190 191 0
-190 -9 -192 0
190 192 0
9 192 0
-190 -13 -193 0
190 193 0
13 193 0
-190 -17 -194 0
190 194 0
17 194 0
-190 -21 -195 0
190 195 0
21 195 0
-190 -25 -196 0
190 196 0
25 196 0
-190 -29 -197 0
190 197 0
29 197 0
-190 -33 -198 0
190 198 0
33 198 0
-190 -36 -199 0
190 199 0
36 199 0
-2 -120 -166 -191 -200 0
2 200 0
120 200 0
166 200 0
191 200 0
-222 -236 -250 -264 -292 0
222 292 0
236 292 0
250 292 0
264 292 0
-124 -170 -193 -10 -202 0
124 202 0
170 202 0
193 202 0
10 202 0
-126 -172 -194 -14 -203 0
126 203 0
172 203 0
194 203 0
14 203 0
-127 -174 -195 -18 -204 0
127 204 0
174 204 0
195 204 0
18 204 0
-128 -176 -196 -22 -205 0
128 205 0
176 205 0
196 205 0
22 205 0
-129 -177 -197 -26 -206 0
129 206 0
177 206 0
197 206 0
26 206 0
-130 -178 -198 -30 -207 0
130 207 0
178 207 0
198 207 0
30 207 0
-131 -179 -199 -34 -208 0
131 208 0
179 208 0
199 208 0
34 208 0
200 209 0
-200 -209 0
-292 -202 -203 -204 -205 -206 -207 -208 210 0
292 -210 0
202 -210 0
203 -210 0
204 -210 0
205 -210 0
206 -210 0
207 -210 0
208 -210 0
203 211 0
-203 -211 0
205 212 0
-205 -212 0
206 213 0
-206 -213 0
207 214 0
-207 -214 0
209 210 62 0
-209 -62 0
-210 -62 0
-202 -211 -215 0
202 215 0
211 215 0
-202 -203 -212 -204 -216 0
202 216 0
203 216 0
212 216 0
204 216 0
-204 -203 -213 -217 0
204 217 0
203 217 0
213 217 0
-202 -203 -206 -214 -218 0
202 218 0
203 218 0
206 218 0
214 218 0
-292 -202 -215 -204 -348 0
292 348 0
202 348 0
215 348 0
204 348 0
-292 -202 -216 -217 -64 0
292 64 0
202 64 0
216 64 0
217 64 0
-292 -215 -216 -218 -65 0
292 65 0
215 65 0
216 65 0
218 65 0
39 219 0
-39 -219 0
40 220 0
-40 -220 0
122 221 0
-122 -221 0
-122 -219 223 0
122 -223 0
219 -223 0
-221 -219 224 0
221 -224 0
219 -224 0
-37 -39 225 0
37 -225 0
39 -225 0
-38 -39 226 0
38 -226 0
39 -226 0
-223 -220 237 0
223 -237 0
220 -237 0
-224 -40 230 0
224 -230 0
40 -230 0
-225 -220 228 0
225 -228 0
220 -228 0
-226 -40 227 0
226 -227 0
40 -227 0
227 228 -229 0
-227 229 0
-228 229 0
229 230 -231 0
-229 231 0
-230 231 0
237 231 -222 0
-237 222 0
-231 222 0
41 233 0
-41 -233 0
42 234 0
-42 -234 0
168 235 0
-168 -235 0
-168 -233 237 0
168 -237 0
233 -237 0
-235 -233 238 0
235 -238 0
233 -238 0
-37 -41 239 0
37 -239 0
41 -239 0
-38 -41 240 0
38 -240 0
41 -240 0
-237 -234 251 0
237 -251 0
234 -251 0
-238 -42 244 0
238 -244 0
42 -244 0
-239 -234 242 0
239 -242 0
234 -242 0
-240 -42 241 0
240 -241 0
42 -241 0
241 242 -243 0
-241 243 0
-242 243 0
243 244 -245 0
-243 245 0
-244 245 0
251 245 -236 0
-251 236 0
-245 236 0
43 247 0
-43 -247 0
44 248 0
-44 -248 0
192 249 0
-192 -249 0
-192 -247 251 0
192 -251 0
247 -251 0
-249 -247 252 0
249 -252 0
247 -252 0
-37 -43 253 0
37 -253 0
43 -253 0
-38 -43 254 0
38 -254 0
43 -254 0
-251 -248 265 0
251 -265 0
248 -265 0
-252 -44 258 0
252 -258 0
44 -258 0
-253 -248 256 0
253 -256 0
248 -256 0
-254 -44 255 0
254 -255 0
44 -255 0
255 256 -257 0
-255 257 0
-256 257 0
257 258 -259 0
-257 259 0
-258 259 0
265 259 -250 0
-265 250 0
-259 250 0
45 261 0
-45 -261 0
46 262 0
-46 -262 0
6 263 0
-6 -263 0
-6 -261 265 0
6 -265 0
261 -265 0
-263 -261 266 0
263 -266 0
261 -266 0
-37 -45 267 0
37 -267 0
45 -267 0
-38 -45 268 0
38 -268 0
45 -268 0
-265 -262 279 0
265 -279 0
262 -279 0
-266 -46 272 0
266 -272 0
46 -272 0
-267 -262 270 0
267 -270 0
262 -270 0
-268 -46 269 0
268 -269 0
46 -269 0
269 270 -271 0
-269 271 0
-270 271 0
271 272 -273 0
-271 273 0
-272 273 0
279 273 -264 0
-279 264 0
-273 264 0
47 275 0
-47 -275 0
48 276 0
-48 -276 0
201 291 0
-201 -291 0
-201 -275 279 0
201 -279 0
275 -279 0
-291 -275 280 0
291 -280 0
275 -280 0
-37 -47 281 0
37 -281 0
47 -281 0
-38 -47 282 0
38 -282 0
47 -282 0
-279 -276 293 0
279 -293 0
276 -293 0
-280 -48 286 0
280 -286 0
48 -286 0
-281 -276 284 0
281 -284 0
276 -284 0
-282 -48 283 0
282 -283 0
48 -283 0
283 284 -285 0
-283 285 0
-284 285 0
285 286 -287 0
-285 287 0
-286 287 0
293 287 -292 0
-293 292 0
-287 292 0
49 289 0
-49 -289 0
50 290 0
-50 -290 0
201 291 0
-201 -291 0
-201 -289 293 0
201 -293 0
289 -293 0
-291 -289 294 0
291 -294 0
289 -294 0
-37 -49 295 0
37 -295 0
49 -295 0
-38 -49 296 0
38 -296 0
49 -296 0
-293 -290 307 0
293 -307 0
290 -307 0
-294 -50 300 0
294 -300 0
50 -300 0
-295 -290 298 0
295 -298 0
290 -298 0
-296 -50 297 0
296 -297 0
50 -297 0
297 298 -299 0
-297 299 0
-298 299 0
299 300 -301 0
-299 301 0
-300 301 0
307 301 -292 0
-307 292 0
-301 292 0
51 303 0
-51 -303 0
52 304 0
-52 -304 0
202 305 0
-202 -305 0
-202 -303 307 0
202 -307 0
303 -307 0
-305 -303 308 0
305 -308 0
303 -308 0
-37 -51 309 0
37 -309 0
51 -309 0
-38 -51 310 0
38 -310 0
51 -310 0
-307 -304 321 0
307 -321 0
304 -321 0
-308 -52 314 0
308 -314 0
52 -314 0
-309 -304 312 0
309 -312 0
304 -312 0
-310 -52 311 0
310 -311 0
52 -311 0
311 312 -313 0
-311 313 0
-312 313 0
313 314 -315 0
-313 315 0
-314 315 0
321 315 -306 0
-321 306 0
-315 306 0
53 317 0
-53 -317 0
54 318 0
-54 -318 0
215 319 0
-215 -319 0
-215 -317 321 0
215 -321 0
317 -321 0
-319 -317 322 0
319 -322 0
317 -322 0
-37 -53 323 0
37 -323 0
53 -323 0
-38 -53 324 0
38 -324 0
53 -324 0
-321 -318 335 0
321 -335 0
318 -335 0
-322 -54 328 0
322 -328 0
54 -328 0
-323 -318 326 0
323 -326 0
318 -326 0
-324 -54 325 0
324 -325 0
54 -325 0
325 326 -327 0
-325 327 0
-326 327 0
327 328 -329 0
-327 329 0
-328 329 0
335 329 -320 0
-335 320 0
-329 320 0
55 331 0
-55 -331 0
56 332 0
-56 -332 0
204 333 0
-204 -333 0
-204 -331 335 0
204 -335 0
331 -335 0
-333 -331 336 0
333 -336 0
331 -336 0
-37 -55 337 0
37 -337 0
55 -337 0
-38 -55 338 0
38 -338 0
55 -338 0
-335 -332 349 0
335 -349 0
332 -349 0
-336 -56 342 0
336 -342 0
56 -342 0
-337 -332 340 0
337 -340 0
332 -340 0
-338 -56 339 0
338 -339 0
56 -339 0
339 340 -341 0
-339 341 0
-340 341 0
341 342 -343 0
-341 343 0
-342 343 0
349 343 -334 0
-349 334 0
-343 334 0
57 345 0
-57 -345 0
58 346 0
-58 -346 0
63 347 0
-63 -347 0
-63 -345 349 0
63 -349 0
345 -349 0
-347 -345 350 0
347 -350 0
345 -350 0
-37 -57 351 0
37 -351 0
57 -351 0
-38 -57 352 0
38 -352 0
57 -352 0
-349 -346 358 0
349 -358 0
346 -358 0
-350 -58 356 0
350 -356 0
58 -356 0
-351 -346 354 0
351 -354 0
346 -354 0
-352 -58 353 0
352 -353 0
58 -353 0
353 354 -355 0
-353 355 0
-354 355 0
355 356 -357 0
-355 357 0
-356 357 0
358 357 -348 0
-358 348 0
-357 348 0
-1 0
2 0
3 0
-4 0
5 0
6 0
7 0
-8 0
-9 0
10 0
11 0
-12 0
13 0
14 0
15 0
-16 0
17 0
18 0
19 0
-20 0
21 0
22 0
23 0
-24 0
25 0
26 0
27 0
-28 0
29 0
30 0
31 0
32 0
33 0
34 0
35 0
36 0
37 0
-38 0
59 0
-60 0
61 0
62 0
63 0
64 0
65 0
c New duplicated circuit:
359 424 0
-359 -424 0
360 425 0
-360 -425 0
362 426 0
-362 -426 0
364 427 0
-364 -427 0
366 428 0
-366 -428 0
368 429 0
-368 -429 0
370 430 0
-370 -430 0
372 431 0
-372 -431 0
374 432 0
-374 -432 0
376 433 0
-376 -433 0
378 434 0
-378 -434 0
380 435 0
-380 -435 0
382 436 0
-382 -436 0
384 437 0
-384 -437 0
386 438 0
-386 -438 0
388 439 0
-388 -439 0
390 440 0
-390 -440 0
392 441 0
-392 -441 0
-424 -360 -442 0
424 442 0
360 442 0
361 425 443 0
-361 -443 0
-425 -443 0
363 425 444 0
-363 -444 0
-425 -444 0
-426 -364 -445 0
426 445 0
364 445 0
-428 -368 -446 0
428 446 0
368 446 0
-430 -372 -447 0
430 447 0
372 447 0
-432 -376 -448 0
432 448 0
376 448 0
-434 -380 -449 0
434 449 0
380 449 0
-436 -384 -450 0
436 450 0
384 450 0
-438 -388 -451 0
438 451 0
388 451 0
-440 -392 -452 0
440 452 0
392 452 0
365 427 453 0
-365 -453 0
-427 -453 0
367 427 454 0
-367 -454 0
-427 -454 0
369 429 455 0
-369 -455 0
-429 -455 0
371 429 456 0
-371 -456 0
-429 -456 0
373 431 457 0
-373 -457 0
-431 -457 0
375 431 458 0
-375 -458 0
-431 -458 0
377 433 459 0
-377 -459 0
-433 -459 0
379 433 460 0
-379 -460 0
-433 -460 0
381 435 461 0
-381 -461 0
-435 -461 0
383 435 462 0
-383 -462 0
-435 -462 0
385 437 463 0
-385 -463 0
-437 -463 0
387 437 464 0
-387 -464 0
-437 -464 0
389 439 465 0
-389 -465 0
-439 -465 0
391 439 466 0
-391 -466 0
-439 -466 0
393 441 467 0
-393 -467 0
-441 -467 0
394 441 468 0
-394 -468 0
-441 -468 0
-442 -445 -446 -447 -448 -449 -450 -451 -452 469 0
442 -469 0
445 -469 0
446 -469 0
447 -469 0
448 -469 0
449 -469 0
450 -469 0
451 -469 0
452 -469 0
469 470 0
-469 -470 0
469 471 0
-469 -471 0
469 417 0
-469 -417 0
-470 -442 -472 0
470 442 -472 0
470 -442 472 0
-470 442 472 0
-470 -445 -473 0
470 445 -473 0
470 -445 473 0
-470 445 473 0
-470 -446 -474 0
470 446 -474 0
470 -446 474 0
-470 446 474 0
-470 -447 -475 0
470 447 -475 0
470 -447 475 0
-470 447 475 0
-470 -448 -476 0
470 448 -476 0
470 -448 476 0
-470 448 476 0
-470 -449 -477 0
470 449 -477 0
470 -449 477 0
-470 449 477 0
-359 -471 -478 0
359 478 0
471 478 0
-470 -450 -479 0
470 450 -479 0
470 -450 479 0
-470 450 479 0
-471 -362 -480 0
471 480 0
362 480 0
-470 -451 -481 0
470 451 -481 0
470 -451 481 0
-470 451 481 0
-471 -366 -482 0
471 482 0
366 482 0
-470 -452 -483 0
470 452 -483 0
470 -452 483 0
-470 452 483 0
-471 -370 -484 0
471 484 0
370 484 0
-471 -374 -485 0
471 485 0
374 485 0
-471 -378 -486 0
471 486 0
378 486 0
-471 -382 -487 0
471 487 0
382 487 0
-471 -386 -488 0
471 488 0
386 488 0
-471 -390 -489 0
471 489 0
390 489 0
-472 -443 -490 0
472 490 0
443 490 0
-472 -444 -491 0
472 491 0
444 491 0
-473 -453 -492 0
473 492 0
453 492 0
-474 -455 -493 0
474 493 0
455 493 0
-475 -457 -494 0
475 494 0
457 494 0
-476 -459 -495 0
476 495 0
459 495 0
-477 -461 -496 0
477 496 0
461 496 0
-479 -463 -497 0
479 497 0
463 497 0
-481 -465 -498 0
481 498 0
465 498 0
-483 -467 -499 0
483 499 0
467 499 0
-473 -454 -500 0
473 500 0
454 500 0
-474 -456 -501 0
474 501 0
456 501 0
-475 -458 -502 0
475 502 0
458 502 0
-476 -460 -503 0
476 503 0
460 503 0
-477 -462 -504 0
477 504 0
462 504 0
-479 -464 -505 0
479 505 0
464 505 0
-481 -466 -506 0
481 506 0
466 506 0
-483 -468 -507 0
483 507 0
468 507 0
-490 -492 -493 -494 -495 -496 -497 -498 -499 508 0
490 -508 0
492 -508 0
493 -508 0
494 -508 0
495 -508 0
496 -508 0
497 -508 0
498 -508 0
499 -508 0
491 509 0
-491 -509 0
500 510 0
-500 -510 0
501 511 0
-501 -511 0
502 512 0
-502 -512 0
503 513 0
-503 -513 0
504 514 0
-504 -514 0
505 515 0
-505 -515 0
506 516 0
-506 -516 0
507 517 0
-507 -517 0
508 518 0
-508 -518 0
508 519 0
-508 -519 0
508 418 0
-508 -418 0
-518 -490 -520 0
518 490 -520 0
518 -490 520 0
-518 490 520 0
-518 -492 -521 0
518 492 -521 0
518 -492 521 0
-518 492 521 0
-518 -493 -522 0
518 493 -522 0
518 -493 522 0
-518 493 522 0
-518 -494 -523 0
518 494 -523 0
518 -494 523 0
-518 494 523 0
-361 -519 -524 0
361 524 0
519 524 0
-518 -495 -525 0
518 495 -525 0
518 -495 525 0
-518 495 525 0
-519 -365 -526 0
519 526 0
365 526 0
-518 -496 -527 0
518 496 -527 0
518 -496 527 0
-518 496 527 0
-519 -369 -528 0
519 528 0
369 528 0
-518 -497 -529 0
518 497 -529 0
518 -497 529 0
-518 497 529 0
-519 -373 -530 0
519 530 0
373 530 0
-518 -498 -531 0
518 498 -531 0
518 -498 531 0
-518 498 531 0
-519 -377 -532 0
519 532 0
377 532 0
-518 -499 -533 0
518 499 -533 0
518 -499 533 0
-518 499 533 0
-519 -381 -534 0
519 534 0
381 534 0
-519 -385 -535 0
519 535 0
385 535 0
-519 -389 -536 0
519 536 0
389 536 0
-519 -393 -537 0
519 537 0
393 537 0
-520 -509 -538 0
520 538 0
509 538 0
-521 -510 -539 0
521 539 0
510 539 0
-522 -511 -540 0
522 540 0
511 540 0
-523 -512 -541 0
523 541 0
512 541 0
-525 -513 -542 0
525 542 0
513 542 0
-527 -514 -543 0
527 543 0
514 543 0
-529 -515 -544 0
529 544 0
515 544 0
-531 -516 -545 0
531 545 0
516 545 0
-533 -517 -546 0
533 546 0
517 546 0
-538 -539 -540 -541 -542 -543 -544 -545 -546 547 0
538 -547 0
539 -547 0
540 -547 0
541 -547 0
542 -547 0
543 -547 0
544 -547 0
545 -547 0
546 -547 0
547 548 0
-547 -548 0
547 419 0
-547 -419 0
-363 -548 -549 0
363 549 0
548 549 0
-548 -367 -550 0
548 550 0
367 550 0
-548 -371 -551 0
548 551 0
371 551 0
-548 -375 -552 0
548 552 0
375 552 0
-548 -379 -553 0
548 553 0
379 553 0
-548 -383 -554 0
548 554 0
383 554 0
-548 -387 -555 0
548 555 0
387 555 0
-548 -391 -556 0
548 556 0
391 556 0
-548 -394 -557 0
548 557 0
394 557 0
-360 -478 -524 -549 -558 0
360 558 0
478 558 0
524 558 0
549 558 0
-580 -594 -608 -622 -650 0
580 650 0
594 650 0
608 650 0
622 650 0
-482 -528 -551 -368 -560 0
482 560 0
528 560 0
551 560 0
368 560 0
-484 -530 -552 -372 -561 0
484 561 0
530 561 0
552 561 0
372 561 0
-485 -532 -553 -376 -562 0
485 562 0
532 562 0
553 562 0
376 562 0
-486 -534 -554 -380 -563 0
486 563 0
534 563 0
554 563 0
380 563 0
-487 -535 -555 -384 -564 0
487 564 0
535 564 0
555 564 0
384 564 0
-488 -536 -556 -388 -565 0
488 565 0
536 565 0
556 565 0
388 565 0
-489 -537 -557 -392 -566 0
489 566 0
537 566 0
557 566 0
392 566 0
558 567 0
-558 -567 0
-650 -560 -561 -562 -563 -564 -565 -566 568 0
650 -568 0
560 -568 0
561 -568 0
562 -568 0
563 -568 0
564 -568 0
565 -568 0
566 -568 0
561 569 0
-561 -569 0
563 570 0
-563 -570 0
564 571 0
-564 -571 0
565 572 0
-565 -572 0
567 568 420 0
-567 -420 0
-568 -420 0
-560 -569 -573 0
560 573 0
569 573 0
-560 -561 -570 -562 -574 0
560 574 0
561 574 0
570 574 0
562 574 0
-562 -561 -571 -575 0
562 575 0
561 575 0
571 575 0
-560 -561 -564 -572 -576 0
560 576 0
561 576 0
564 576 0
572 576 0
-650 -560 -573 -562 -706 0
650 706 0
560 706 0
573 706 0
562 706 0
-650 -560 -574 -575 -422 0
650 422 0
560 422 0
574 422 0
575 422 0
-650 -573 -574 -576 -423 0
650 423 0
573 423 0
574 423 0
576 423 0
397 577 0
-397 -577 0
398 578 0
-398 -578 0
480 579 0
-480 -579 0
-480 -577 581 0
480 -581 0
577 -581 0
-579 -577 582 0
579 -582 0
577 -582 0
-395 -397 583 0
395 -583 0
397 -583 0
-396 -397 584 0
396 -584 0
397 -584 0
-581 -578 595 0
581 -595 0
578 -595 0
-582 -398 588 0
582 -588 0
398 -588 0
-583 -578 586 0
583 -586 0
578 -586 0
-584 -398 585 0
584 -585 0
398 -585 0
585 586 -587 0
-585 587 0
-586 587 0
587 588 -589 0
-587 589 0
-588 589 0
595 589 -580 0
-595 580 0
-589 580 0
399 591 0
-399 -591 0
400 592 0
-400 -592 0
526 593 0
-526 -593 0
-526 -591 595 0
526 -595 0
591 -595 0
-593 -591 596 0
593 -596 0
591 -596 0
-395 -399 597 0
395 -597 0
399 -597 0
-396 -399 598 0
396 -598 0
399 -598 0
-595 -592 609 0
595 -609 0
592 -609 0
-596 -400 602 0
596 -602 0
400 -602 0
-597 -592 600 0
597 -600 0
592 -600 0
-598 -400 599 0
598 -599 0
400 -599 0
599 600 -601 0
-599 601 0
-600 601 0
601 602 -603 0
-601 603 0
-602 603 0
609 603 -594 0
-609 594 0
-603 594 0
401 605 0
-401 -605 0
402 606 0
-402 -606 0
550 607 0
-550 -607 0
-550 -605 609 0
550 -609 0
605 -609 0
-607 -605 610 0
607 -610 0
605 -610 0
-395 -401 611 0
395 -611 0
401 -611 0
-396 -401 612 0
396 -612 0
401 -612 0
-609 -606 623 0
609 -623 0
606 -623 0
-610 -402 616 0
610 -616 0
402 -616 0
-611 -606 614 0
611 -614 0
606 -614 0
-612 -402 613 0
612 -613 0
402 -613 0
613 614 -615 0
-613 615 0
-614 615 0
615 616 -617 0
-615 617 0
-616 617 0
623 617 -608 0
-623 608 0
-617 608 0
403 619 0
-403 -619 0
404 620 0
-404 -620 0
364 621 0
-364 -621 0
-364 -619 623 0
364 -623 0
619 -623 0
-621 -619 624 0
621 -624 0
619 -624 0
-395 -403 625 0
395 -625 0
403 -625 0
-396 -403 626 0
396 -626 0
403 -626 0
-623 -620 637 0
623 -637 0
620 -637 0
-624 -404 630 0
624 -630 0
404 -630 0
-625 -620 628 0
625 -628 0
620 -628 0
-626 -404 627 0
626 -627 0
404 -627 0
627 628 -629 0
-627 629 0
-628 629 0
629 630 -631 0
-629 631 0
-630 631 0
637 631 -622 0
-637 622 0
-631 622 0
405 633 0
-405 -633 0
406 634 0
-406 -634 0
559 649 0
-559 -649 0
-559 -633 637 0
559 -637 0
633 -637 0
-649 -633 638 0
649 -638 0
633 -638 0
-395 -405 639 0
395 -639 0
405 -639 0
-396 -405 640 0
396 -640 0
405 -640 0
-637 -634 651 0
637 -651 0
634 -651 0
-638 -406 644 0
638 -644 0
406 -644 0
-639 -634 642 0
639 -642 0
634 -642 0
-640 -406 641 0
640 -641 0
406 -641 0
641 642 -643 0
-641 643 0
-642 643 0
643 644 -645 0
-643 645 0
-644 645 0
651 645 -650 0
-651 650 0
-645 650 0
407 647 0
-407 -647 0
408 648 0
-408 -648 0
559 649 0
-559 -649 0
-559 -647 651 0
559 -651 0
647 -651 0
-649 -647 652 0
649 -652 0
647 -652 0
-395 -407 653 0
395 -653 0
407 -653 0
-396 -407 654 0
396 -654 0
407 -654 0
-651 -648 665 0
651 -665 0
648 -665 0
-652 -408 658 0
652 -658 0
408 -658 0
-653 -648 656 0
653 -656 0
648 -656 0
-654 -408 655 0
654 -655 0
408 -655 0
655 656 -657 0
-655 657 0
-656 657 0
657 658 -659 0
-657 659 0
-658 659 0
665 659 -650 0
-665 650 0
-659 650 0
409 661 0
-409 -661 0
410 662 0
-410 -662 0
560 663 0
-560 -663 0
-560 -661 665 0
560 -665 0
661 -665 0
-663 -661 666 0
663 -666 0
661 -666 0
-395 -409 667 0
395 -667 0
409 -667 0
-396 -409 668 0
396 -668 0
409 -668 0
-665 -662 679 0
665 -679 0
662 -679 0
-666 -410 672 0
666 -672 0
410 -672 0
-667 -662 670 0
667 -670 0
662 -670 0
-668 -410 669 0
668 -669 0
410 -669 0
669 670 -671 0
-669 671 0
-670 671 0
671 672 -673 0
-671 673 0
-672 673 0
679 673 -664 0
-679 664 0
-673 664 0
411 675 0
-411 -675 0
412 676 0
-412 -676 0
573 677 0
-573 -677 0
-573 -675 679 0
573 -679 0
675 -679 0
-677 -675 680 0
677 -680 0
675 -680 0
-395 -411 681 0
395 -681 0
411 -681 0
-396 -411 682 0
396 -682 0
411 -682 0
-679 -676 693 0
679 -693 0
676 -693 0
-680 -412 686 0
680 -686 0
412 -686 0
-681 -676 684 0
681 -684 0
676 -684 0
-682 -412 683 0
682 -683 0
412 -683 0
683 684 -685 0
-683 685 0
-684 685 0
685 686 -687 0
-685 687 0
-686 687 0
693 687 -678 0
-693 678 0
-687 678 0
413 689 0
-413 -689 0
414 690 0
-414 -690 0
562 691 0
-562 -691 0
-562 -689 693 0
562 -693 0
689 -693 0
-691 -689 694 0
691 -694 0
689 -694 0
-395 -413 695 0
395 -695 0
413 -695 0
-396 -413 696 0
396 -696 0
413 -696 0
-693 -690 707 0
693 -707 0
690 -707 0
-694 -414 700 0
694 -700 0
414 -700 0
-695 -690 698 0
695 -698 0
690 -698 0
-696 -414 697 0
696 -697 0
414 -697 0
697 698 -699 0
-697 699 0
-698 699 0
699 700 -701 0
-699 701 0
-700 701 0
707 701 -692 0
-707 692 0
-701 692 0
415 703 0
-415 -703 0
416 704 0
-416 -704 0
421 705 0
-421 -705 0
-421 -703 707 0
421 -707 0
703 -707 0
-705 -703 708 0
705 -708 0
703 -708 0
-395 -415 709 0
395 -709 0
415 -709 0
-396 -415 710 0
396 -710 0
415 -710 0
-707 -704 716 0
707 -716 0
704 -716 0
-708 -416 714 0
708 -714 0
416 -714 0
-709 -704 712 0
709 -712 0
704 -712 0
-710 -416 711 0
710 -711 0
416 -711 0
711 712 -713 0
-711 713 0
-712 713 0
713 714 -715 0
-713 715 0
-714 715 0
716 715 -706 0
-716 706 0
-715 706 0
39 -397 0
-39 397 0
40 -398 0
-40 398 0
41 -399 0
-41 399 0
42 -400 0
-42 400 0
43 -401 0
-43 401 0
44 -402 0
-44 402 0
45 -403 0
-45 403 0
46 -404 0
-46 404 0
47 -405 0
-47 405 0
48 -406 0
-48 406 0
49 -407 0
-49 407 0
50 -408 0
-50 408 0
51 -409 0
-51 409 0
52 -410 0
-52 410 0
53 -411 0
-53 411 0
54 -412 0
-54 412 0
55 -413 0
-55 413 0
56 -414 0
-56 414 0
57 -415 0
-57 415 0
58 -416 0
-58 416 0
-359 0
360 0
361 0
-362 0
363 0
-364 0
-365 0
-366 0
367 0
368 0
369 0
-370 0
371 0
372 0
373 0
-374 0
375 0
376 0
377 0
-378 0
379 0
380 0
381 0
-382 0
383 0
384 0
385 0
-386 0
387 0
388 0
389 0
390 0
391 0
-392 0
-393 0
-394 0
395 0
-396 0
417 0
-418 0
-419 0
-420 0
421 0
422 0
-423 0
